
Gurobi 12.0.2 (win64) logging started Thu Nov 20 20:44:55 2025

Set parameter LogFile to value "resultados DATA_1_n30m10b2d1\instancia_6_log.txt"
Set parameter TimeLimit to value 3600
Gurobi Optimizer version 12.0.2 build v12.0.2rc0 (win64 - Windows 10.0 (19045.2))

CPU model: Intel(R) Core(TM) i5-6300U CPU @ 2.40GHz, instruction set [SSE2|AVX|AVX2]
Thread count: 2 physical cores, 4 logical processors, using up to 4 threads

Non-default parameters:
TimeLimit  3600

Optimize a model with 14206 rows, 71327 columns and 26702058 nonzeros
Model fingerprint: 0xde3c85fb
Variable types: 0 continuous, 71327 integer (71327 binary)
Coefficient statistics:
  Matrix range     [1e+00, 1e+00]
  Objective range  [6e-03, 4e-02]
  Bounds range     [1e+00, 1e+00]
  RHS range        [1e+00, 7e+01]
Found heuristic solution: objective 0.8273704
Presolve removed 0 rows and 0 columns (presolve time = 5s)...
Presolve removed 0 rows and 8760 columns (presolve time = 10s)...
Presolve removed 0 rows and 27934 columns (presolve time = 15s)...
Presolve removed 0 rows and 27934 columns (presolve time = 20s)...
Presolve removed 56 rows and 27934 columns (presolve time = 25s)...
Presolve removed 56 rows and 27952 columns (presolve time = 30s)...
Presolve removed 56 rows and 28002 columns (presolve time = 35s)...
Presolve removed 56 rows and 28002 columns (presolve time = 41s)...
Presolve removed 56 rows and 28002 columns (presolve time = 45s)...
Presolve removed 56 rows and 28002 columns (presolve time = 50s)...
Presolve removed 56 rows and 28002 columns (presolve time = 55s)...
Presolve removed 56 rows and 28002 columns (presolve time = 60s)...
Presolve removed 56 rows and 28002 columns (presolve time = 65s)...
Presolve removed 56 rows and 28002 columns (presolve time = 70s)...
Presolve removed 56 rows and 28002 columns (presolve time = 75s)...
Presolve removed 56 rows and 28002 columns (presolve time = 80s)...
Presolve removed 56 rows and 28002 columns (presolve time = 85s)...
Presolve removed 56 rows and 28002 columns (presolve time = 90s)...
Presolve removed 56 rows and 28002 columns (presolve time = 95s)...
Presolve removed 56 rows and 28002 columns (presolve time = 100s)...
Presolve removed 56 rows and 28002 columns (presolve time = 105s)...
Presolve removed 56 rows and 28002 columns (presolve time = 110s)...
Presolve removed 56 rows and 28002 columns (presolve time = 115s)...
Presolve removed 56 rows and 28002 columns (presolve time = 120s)...
Presolve removed 56 rows and 28002 columns (presolve time = 125s)...
Presolve removed 56 rows and 28002 columns (presolve time = 130s)...
Presolve removed 56 rows and 28002 columns (presolve time = 135s)...
Presolve removed 56 rows and 28002 columns (presolve time = 140s)...
Presolve removed 56 rows and 28002 columns (presolve time = 145s)...
Presolve removed 56 rows and 28002 columns (presolve time = 150s)...
Presolve removed 56 rows and 28002 columns (presolve time = 155s)...
Presolve removed 56 rows and 28002 columns (presolve time = 160s)...
Presolve removed 56 rows and 28002 columns (presolve time = 165s)...
Presolve removed 56 rows and 28002 columns (presolve time = 170s)...
Presolve removed 56 rows and 28002 columns (presolve time = 175s)...
Presolve removed 56 rows and 28002 columns (presolve time = 180s)...
Presolve removed 56 rows and 28002 columns (presolve time = 185s)...
Presolve removed 56 rows and 28002 columns (presolve time = 190s)...
Presolve removed 56 rows and 28002 columns (presolve time = 195s)...
Presolve removed 56 rows and 28002 columns (presolve time = 200s)...
Presolve removed 56 rows and 28002 columns (presolve time = 205s)...
Presolve removed 56 rows and 28002 columns (presolve time = 210s)...
Presolve removed 56 rows and 28002 columns (presolve time = 215s)...
Presolve removed 56 rows and 28002 columns (presolve time = 220s)...
Presolve removed 56 rows and 28002 columns (presolve time = 225s)...
Presolve removed 56 rows and 28002 columns (presolve time = 230s)...
Presolve removed 56 rows and 28002 columns (presolve time = 235s)...
Presolve removed 56 rows and 28002 columns (presolve time = 240s)...
Presolve removed 56 rows and 28002 columns (presolve time = 245s)...
Presolve removed 56 rows and 28002 columns (presolve time = 250s)...
Presolve removed 56 rows and 28002 columns (presolve time = 255s)...
Presolve removed 56 rows and 28002 columns
Presolve time: 256.91s
Presolved: 14150 rows, 43325 columns, 16521665 nonzeros
Found heuristic solution: objective 0.4975556
Variable types: 0 continuous, 43325 integer (43325 binary)
Deterministic concurrent LP optimizer: dual simplex and barrier
Showing barrier log only...

Root barrier log...

Ordering time: 0.39s

Barrier statistics:
 AA' NZ     : 4.311e+06
 Factor NZ  : 6.061e+06 (roughly 50 MB of memory)
 Factor Ops : 1.351e+10 (roughly 1 second per iteration)
 Threads    : 1

                  Objective                Residual
Iter       Primal          Dual         Primal    Dual     Compl     Time
   0   1.87424603e+03  1.08888600e+00  9.77e+03 6.62e-04  1.57e-01   272s
   1   9.29132120e+01  5.78875525e+00  4.97e+02 1.95e-03  7.84e-03   274s
   2   9.87139709e+00  4.24461084e+00  5.09e+01 7.32e-05  9.01e-04   276s
   3   2.54386261e+00  2.68555417e+00  9.57e+00 3.01e-05  2.17e-04   279s
   4   1.33684466e+00  1.83980836e+00  2.63e+00 0.00e+00  7.04e-05   281s
   5   9.56995654e-01  1.29377609e+00  1.55e-01 0.00e+00  1.55e-05   283s
   6   9.72689043e-01  1.06524147e+00  1.32e-02 0.00e+00  3.69e-06   285s
   7   9.87406727e-01  1.02343927e+00  3.43e-03 0.00e+00  1.40e-06   288s
   8   9.94771361e-01  1.00690984e+00  3.04e-04 0.00e+00  4.66e-07   290s
   9   9.98322282e-01  1.00128603e+00  0.00e+00 0.00e+00  1.13e-07   292s
  10   9.99257962e-01  1.00044695e+00  0.00e+00 0.00e+00  4.51e-08   294s
  11   9.99600293e-01  1.00020832e+00  0.00e+00 0.00e+00  2.31e-08   297s
  12   9.99798655e-01  1.00002632e+00  0.00e+00 0.00e+00  8.63e-09   299s
  13   9.99903682e-01  9.99960353e-01  0.00e+00 0.00e+00  2.15e-09   301s
  14   9.99937851e-01  9.99947532e-01  0.00e+00 0.00e+00  3.66e-10   304s
  15   9.99943539e-01  9.99944451e-01  0.00e+00 0.00e+00  3.45e-11   306s
  16   9.99944107e-01  9.99944178e-01  1.31e-10 1.31e-16  2.67e-12   309s
  17   9.99944150e-01  9.99944157e-01  1.23e-09 2.16e-16  2.67e-13   311s

Barrier solved model in 17 iterations and 311.32 seconds (161.32 work units)
Optimal objective 9.99944150e-01


Root crossover log...

    1568 variables added to crossover basis                      315s

Restart crossover...

     546 variables added to crossover basis                      321s
    1382 variables added to crossover basis                      325s
    1650 variables added to crossover basis                      330s
    2042 variables added to crossover basis                      335s

     797 DPushes remaining with DInf 6.7421688e-03               339s
     693 DPushes remaining with DInf 1.4015850e-02               340s
     437 DPushes remaining with DInf 6.7617250e-02               346s
     272 DPushes remaining with DInf 7.9922884e-02               350s
      66 DPushes remaining with DInf 9.3323138e-02               356s
       0 DPushes remaining with DInf 9.3071998e-02               358s

     661 PPushes remaining with PInf 1.9640845e-03               358s
     578 PPushes remaining with PInf 5.8390885e-03               360s
     367 PPushes remaining with PInf 1.1177433e-02               365s
     153 PPushes remaining with PInf 1.3052159e-01               370s
      23 PPushes remaining with PInf 1.0837815e-01               375s
       0 PPushes remaining with PInf 1.0582655e-01               377s

  Push phase complete: Pinf 1.0582655e-01, Dinf 7.5780734e+00    377s


Root simplex log...

Iteration    Objective       Primal Inf.    Dual Inf.      Time
    1427    9.9994416e-01   0.000000e+00   7.578073e+00    378s
    1527    9.9994417e-01   0.000000e+00   4.723502e+00    384s
    1637    9.9994420e-01   0.000000e+00   5.750473e+00    392s
    1757    9.9994440e-01   0.000000e+00   9.042774e+00    401s
    1877    9.9994463e-01   0.000000e+00   9.888740e+00    411s
    1997    9.9994478e-01   0.000000e+00   1.385435e+00    420s
    2117    9.9994490e-01   0.000000e+00   2.317963e+01    429s
    2227    9.9994499e-01   0.000000e+00   4.132025e+00    436s
    2347    9.9994511e-01   0.000000e+00   5.557637e+00    446s
    2467    9.9994523e-01   0.000000e+00   1.601736e+01    454s
    2587    9.9994533e-01   0.000000e+00   3.393956e+00    463s
    2707    9.9994540e-01   0.000000e+00   1.842348e+00    473s
    2827    9.9994545e-01   0.000000e+00   3.524810e+00    482s
    2947    9.9994552e-01   0.000000e+00   3.414723e+00    491s
    3067    9.9994558e-01   0.000000e+00   4.294430e+00    500s
    3187    9.9994563e-01   0.000000e+00   9.013826e-01    510s
    3307    9.9994568e-01   0.000000e+00   8.835195e-01    519s
    3427    9.9994571e-01   0.000000e+00   2.570884e-02    528s
    3547    9.9994574e-01   0.000000e+00   3.119240e-01    537s
    3667    9.9994577e-01   0.000000e+00   5.840527e-01    547s
    3787    9.9994578e-01   0.000000e+00   2.692981e-01    556s
    3907    9.9994580e-01   0.000000e+00   1.408309e+00    565s
    4027    9.9994581e-01   0.000000e+00   8.724852e-03    574s
    4157    9.9994582e-01   0.000000e+00   3.759167e-04    584s
    4299    9.9994418e-01   6.992424e-01   0.000000e+00    592s
    4419    9.9994408e-01   3.819695e+00   0.000000e+00    598s
    4539    9.9994398e-01   7.770363e-01   0.000000e+00    603s
    4659    9.9994392e-01   1.205046e-01   0.000000e+00    609s
    4779    9.9994385e-01   1.970974e-01   0.000000e+00    615s
    4899    9.9994381e-01   6.135171e-01   0.000000e+00    621s
    5019    9.9994378e-01   2.938159e-01   0.000000e+00    628s
    5139    9.9994376e-01   7.374558e-02   0.000000e+00    633s
    5259    9.9994375e-01   8.014821e-02   0.000000e+00    639s
    5379    9.9994374e-01   2.703938e-02   0.000000e+00    645s
    5499    9.9994374e-01   1.560955e-04   0.000000e+00    651s
    5600    9.9994390e-01   0.000000e+00   4.122239e-01    658s
    5720    9.9994393e-01   0.000000e+00   8.087551e-01    668s
    5840    9.9994397e-01   0.000000e+00   6.411180e-01    678s
    5960    9.9994401e-01   0.000000e+00   1.226037e+00    688s
    6080    9.9994403e-01   0.000000e+00   7.554676e-01    698s
    6200    9.9994405e-01   0.000000e+00   4.489653e-01    707s
    6320    9.9994407e-01   0.000000e+00   6.221903e-01    716s
    6440    9.9994408e-01   0.000000e+00   1.216598e+00    726s
    6560    9.9994408e-01   0.000000e+00   2.200408e+01    735s
    6680    9.9994410e-01   0.000000e+00   1.121662e+00    744s
    6800    9.9994410e-01   0.000000e+00   1.167015e+00    754s
    6920    9.9994411e-01   0.000000e+00   1.115971e+00    763s
    7040    9.9994412e-01   0.000000e+00   1.005190e+00    772s
    7160    9.9994413e-01   0.000000e+00   3.162233e-01    781s
    7280    9.9994414e-01   0.000000e+00   3.018937e-01    791s
    7400    9.9994414e-01   0.000000e+00   6.575278e-01    800s
    7520    9.9994415e-01   0.000000e+00   2.949394e-01    810s
    7640    9.9994415e-01   0.000000e+00   1.068536e-01    819s
    7760    9.9994416e-01   0.000000e+00   5.213536e+00    829s
    7890    9.9994416e-01   0.000000e+00   9.581151e-02    839s
    8000    9.9994417e-01   0.000000e+00   3.877472e-01    846s
    8120    9.9994417e-01   0.000000e+00   1.330581e-01    855s
    8240    9.9994417e-01   0.000000e+00   5.965429e-02    865s
    8360    9.9994417e-01   0.000000e+00   1.253637e-02    875s
    8480    9.9994417e-01   0.000000e+00   1.013908e-06    884s
    8605    9.9994415e-01   0.000000e+00   1.020325e-01    894s
    8725    9.9994415e-01   0.000000e+00   1.129863e-04    904s
    8844    9.9994415e-01   0.000000e+00   1.813488e-05    914s
    8879    9.9994415e-01   0.000000e+00   0.000000e+00    921s
Concurrent spin time: 0.00s

Solved with barrier

Use crossover to convert LP symmetric solution to basic solution...

Root crossover log...


Restart crossover...

    8879 variables added to crossover basis                     1078s
    8887 variables added to crossover basis                     1704s
    8897 variables added to crossover basis                     1706s
    8927 variables added to crossover basis                     1711s
    8967 variables added to crossover basis                     1716s
    9007 variables added to crossover basis                     1721s
    9047 variables added to crossover basis                     1726s
    9087 variables added to crossover basis                     1731s
    9127 variables added to crossover basis                     1735s
    9167 variables added to crossover basis                     1742s
    9187 variables added to crossover basis                     1746s
    9227 variables added to crossover basis                     1751s
    9267 variables added to crossover basis                     1755s
    9297 variables added to crossover basis                     1762s
    9327 variables added to crossover basis                     1766s
    9367 variables added to crossover basis                     1770s
    9417 variables added to crossover basis                     1776s
    9467 variables added to crossover basis                     1781s
    9517 variables added to crossover basis                     1786s
    9567 variables added to crossover basis                     1790s
    9617 variables added to crossover basis                     1795s
    9677 variables added to crossover basis                     1801s
    9727 variables added to crossover basis                     1805s
    9787 variables added to crossover basis                     1811s
    9847 variables added to crossover basis                     1816s
    9907 variables added to crossover basis                     1821s
    9967 variables added to crossover basis                     1825s
   10027 variables added to crossover basis                     1830s
   10097 variables added to crossover basis                     1836s
   10167 variables added to crossover basis                     1841s
   10237 variables added to crossover basis                     1846s
   10307 variables added to crossover basis                     1850s
   10387 variables added to crossover basis                     1856s
   10467 variables added to crossover basis                     1861s
   10547 variables added to crossover basis                     1865s
   10635 variables added to crossover basis                     1870s
   10724 variables added to crossover basis                     1875s
   10823 variables added to crossover basis                     1880s
   10922 variables added to crossover basis                     1885s
   11032 variables added to crossover basis                     1890s
   11151 variables added to crossover basis                     1895s
   11277 variables added to crossover basis                     1900s
   11422 variables added to crossover basis                     1905s
   11589 variables added to crossover basis                     1910s
   11776 variables added to crossover basis                     1915s
   11995 variables added to crossover basis                     1920s
   12300 variables added to crossover basis                     1925s
   12974 variables added to crossover basis                     1930s

    1006 DPushes remaining with DInf 6.3898363e-04              1948s
    1005 DPushes remaining with DInf 6.3883573e-04              1965s
     896 DPushes remaining with DInf 4.2621474e-03              2010s
     786 DPushes remaining with DInf 2.0688464e-02              2056s
     676 DPushes remaining with DInf 4.5661588e-02              2100s
     566 DPushes remaining with DInf 9.1958307e-02              2135s
     456 DPushes remaining with DInf 1.2110021e-01              2167s
     346 DPushes remaining with DInf 1.6453083e-01              2204s
     227 DPushes remaining with DInf 2.0518880e-01              2243s
     117 DPushes remaining with DInf 2.7951055e-01              2287s
       7 DPushes remaining with DInf 6.5316627e-01              2332s
       0 DPushes remaining with DInf 6.8661543e-01              2353s

     536 PPushes remaining with PInf 0.0000000e+00              2353s
     535 PPushes remaining with PInf 0.0000000e+00              2372s
     411 PPushes remaining with PInf 0.0000000e+00              2415s
     292 PPushes remaining with PInf 1.1218075e-05              2461s
     169 PPushes remaining with PInf 1.1560184e-02              2509s
      44 PPushes remaining with PInf 1.9025751e-02              2560s
       0 PPushes remaining with PInf 2.1292733e-02              2587s

  Push phase complete: Pinf 2.1292733e-02, Dinf 1.5180870e+01   2588s


Root simplex log...

Iteration    Objective       Primal Inf.    Dual Inf.      Time
   10424    9.9994415e-01   0.000000e+00   1.518087e+01   2608s
   10524    9.9994415e-01   0.000000e+00   3.821011e+00   2649s
   10634    9.9994416e-01   0.000000e+00   9.159345e+00   2755s
   10734    9.9994416e-01   0.000000e+00   7.114471e+01   2864s
   10834    9.9994417e-01   0.000000e+00   2.990623e+01   3009s
   10934    9.9994419e-01   0.000000e+00   2.646150e+01   3152s
   11034    9.9994421e-01   0.000000e+00   1.781271e+01   3295s
   11134    9.9994422e-01   0.000000e+00   4.342752e+01   3435s
   11244    9.9994423e-01   0.000000e+00   9.859990e+00   3575s

Root relaxation: time limit, 11286 iterations, 3339.41 seconds (1753.64 work units)

    Nodes    |    Current Node    |     Objective Bounds      |     Work
 Expl Unexpl |  Obj  Depth IntInf | Incumbent    BestBd   Gap | It/Node Time

     0     0          -    0         0.82737  720.15807      -     - 3600s

Explored 1 nodes (11286 simplex iterations) in 3601.37 seconds (1859.28 work units)
Thread count was 4 (of 4 available processors)

Solution count 2: 0.82737 0.497556 

Time limit reached
Best objective 8.273703703704e-01, best bound 7.201580740744e+02, gap 86941.8013%
